NAME : optical-integer.pruned_global_4.-13412545.tour
COMMENT : Length = -13412545
TYPE : TOUR
DIMENSION : 174
TOUR_SECTION
171
168
160
162
163
164
119
97
103
121
48
159
174
161
136
167
122
123
124
125
126
101
129
99
165
173
127
135
169
131
100
106
110
108
107
98
95
93
91
89
87
85
83
81
79
77
75
73
71
69
67
65
63
61
59
57
55
56
58
60
62
64
66
68
70
72
74
76
78
80
82
84
86
54
53
52
50
47
45
43
41
39
2
1
3
4
5
37
35
33
31
29
27
25
23
21
19
17
15
13
11
9
7
6
8
10
12
14
16
18
20
22
24
26
28
30
32
34
36
38
40
42
44
46
49
51
88
90
92
94
96
105
104
109
111
112
113
114
115
102
117
120
116
118
128
130
132
133
134
137
138
139
140
141
142
143
144
148
146
145
147
149
150
152
151
153
154
155
158
156
157
166
170
172
-1
EOF
